c preprocessed version of d493.tsp, 488 vertices, 1452 edges
p td 488 1452
1 0
0 31
0 30
0 29
1 2
1 3
1 4
1 51
1 32
1 31
1 29
1 28
52 1
3 2
345 2
2 343
2 344
2 477
475 2
4 3
6 3
484 3
475 3
474 3
5 4
45 4
4 6
4 51
50 4
5 6
5 7
5 45
5 60
5 44
5 58
7 6
367 6
6 484
8 7
368 7
359 7
60 7
7 367
9 8
267 8
358 8
8 368
8 60
8 59
10 9
266 9
61 9
9 59
9 267
9 42
11 10
483 10
216 10
62 10
10 266
10 61
12 11
184 11
63 11
214 11
11 483
11 62
13 12
185 12
12 215
12 214
12 184
14 13
13 215
13 185
15 14
212 14
14 215
14 213
14 185
16 15
168 15
178 15
15 185
15 186
15 212
17 16
170 16
177 16
16 212
16 207
16 168
16 206
18 17
176 17
175 17
198 17
17 170
17 206
19 18
197 18
18 171
18 176
18 198
20 19
19 171
19 172
19 74
19 197
21 20
75 20
20 74
20 197
22 21
193 21
21 75
21 197
23 22
191 22
121 22
76 22
22 75
22 193
24 23
117 23
23 121
23 191
25 24
24 117
24 191
24 190
26 25
25 117
25 190
116 25
27 26
26 190
116 26
115 26
28 27
102 27
103 27
27 105
27 104
27 106
27 114
27 190
115 27
29 28
89 28
90 28
28 91
28 93
28 102
29 30
29 89
31 30
30 89
122 30
31 32
31 33
31 123
122 31
33 32
34 32
53 32
52 32
33 34
161 33
33 123
35 34
34 53
162 34
161 34
36 35
35 53
35 162
52 35
37 36
48 36
36 162
52 36
49 36
38 37
37 56
37 48
37 47
37 54
37 55
37 162
37 160
38 39
38 57
38 56
38 160
38 159
38 188
38 158
38 66
38 67
38 152
38 125
38 130
39 40
188 39
64 39
39 57
39 189
40 41
189 40
57 40
40 62
40 56
41 42
56 41
62 41
41 55
41 61
42 43
55 42
61 42
54 42
42 59
42 46
43 44
59 43
43 46
43 58
45 44
46 44
58 44
45 46
50 45
49 45
47 46
54 46
49 46
47 48
47 54
49 47
49 48
50 49
52 49
50 51
50 52
52 51
52 53
55 54
56 55
57 56
59 58
58 60
59 60
62 61
63 62
189 62
64 63
184 63
63 189
65 64
188 64
183 64
184 64
64 189
65 66
182 65
181 65
65 188
65 183
67 66
182 66
66 188
68 67
152 67
67 182
67 181
69 68
154 68
153 68
68 152
68 181
70 69
154 69
69 179
69 180
69 178
69 181
71 70
167 70
70 168
70 154
70 178
72 71
71 151
166 71
71 154
71 167
71 153
73 72
147 72
148 72
72 166
72 151
72 150
74 73
146 73
147 73
73 166
75 74
146 74
74 165
74 173
74 166
74 172
76 75
145 75
75 146
77 76
121 76
142 76
76 145
76 144
78 77
119 77
118 77
77 142
77 121
79 78
137 78
78 140
119 78
78 142
120 78
115 78
80 79
114 79
79 138
79 137
115 79
80 81
106 80
114 80
80 138
80 107
81 82
107 81
138 81
112 81
81 155
81 111
81 136
81 137
83 82
100 82
101 82
111 82
82 155
84 83
133 83
83 135
100 83
83 136
83 155
85 84
96 84
98 84
131 84
132 84
133 84
84 100
84 99
86 85
127 85
128 85
95 85
96 85
85 131
87 86
93 86
86 127
86 95
86 94
88 87
93 87
87 127
156 87
122 87
89 88
90 88
88 92
88 93
122 88
89 90
122 89
90 91
90 92
91 92
91 93
92 93
93 94
93 102
95 94
97 94
98 94
94 101
94 102
95 96
95 97
96 97
96 98
97 98
98 99
98 101
99 100
101 99
101 100
101 102
101 110
101 111
102 103
102 110
103 104
110 103
109 103
103 108
104 105
108 104
104 107
105 106
105 107
106 107
106 114
108 107
107 113
107 112
109 108
108 113
110 109
109 111
109 113
110 111
112 111
113 111
112 113
115 114
116 115
120 115
116 117
116 120
117 118
117 121
120 117
119 118
118 121
120 118
120 119
122 123
156 122
122 157
124 123
161 123
160 123
159 123
157 123
124 125
159 124
163 124
124 164
156 124
157 124
125 126
158 125
164 125
125 130
156 125
127 126
126 130
126 129
126 128
156 126
127 128
156 127
129 128
128 131
129 130
129 131
131 130
132 130
133 130
130 152
130 151
130 150
130 134
131 132
132 133
133 134
133 135
135 134
139 134
149 134
134 150
136 135
135 139
136 137
155 136
136 139
138 137
137 139
137 140
140 139
139 149
139 141
140 141
140 142
142 141
143 141
141 149
141 148
141 147
142 143
142 144
144 143
145 143
143 146
143 147
144 145
145 146
146 147
147 148
149 148
148 150
149 150
150 151
151 152
151 153
153 152
154 153
156 157
159 158
163 158
158 164
160 159
159 163
161 160
162 160
162 161
163 164
166 165
165 167
173 165
174 165
165 169
166 167
167 168
167 169
169 168
177 168
168 178
170 169
174 169
169 177
171 170
174 170
175 170
170 177
172 171
171 175
171 174
171 176
173 172
172 174
173 174
176 175
178 179
178 186
179 180
179 186
179 187
181 180
180 183
180 187
181 182
181 183
183 184
183 187
185 184
187 184
186 185
187 185
186 187
190 191
190 192
190 194
192 191
191 193
192 193
192 194
194 193
193 197
193 196
194 195
194 196
194 232
196 195
197 195
198 195
195 199
195 200
195 232
196 197
197 198
198 199
198 206
200 199
206 199
201 199
199 205
199 203
200 201
200 232
201 202
201 203
201 232
203 202
230 202
232 202
202 231
203 204
203 230
203 205
205 204
230 204
209 204
204 482
204 227
204 229
204 225
206 205
208 205
205 209
206 207
206 208
208 207
207 212
207 211
207 210
208 209
208 210
210 209
209 224
209 225
209 221
211 210
210 219
210 220
210 221
212 211
211 213
211 219
212 213
213 214
213 217
213 215
213 218
213 219
215 214
214 216
214 483
214 217
217 216
483 216
263 216
216 262
216 479
216 266
218 217
217 247
217 263
219 218
246 218
218 247
220 219
219 246
219 245
220 221
220 481
220 245
221 222
221 223
221 481
221 224
223 222
481 222
244 222
222 241
222 243
224 223
223 239
223 241
225 224
226 224
224 238
224 239
225 226
225 227
227 226
228 226
226 238
227 228
227 482
229 228
482 228
231 228
228 238
230 229
229 482
229 231
230 231
232 231
231 237
231 235
231 238
231 233
232 233
232 234
233 234
233 235
235 234
341 234
340 234
478 234
234 477
235 236
235 337
235 237
235 478
237 236
309 236
308 236
236 310
236 312
236 337
238 237
287 237
237 309
237 288
238 239
238 287
239 240
239 285
239 241
239 286
239 287
241 240
242 240
281 240
240 284
240 282
240 285
241 242
241 243
243 242
250 242
242 281
242 252
244 243
243 250
245 244
481 244
244 249
244 250
246 245
245 249
245 481
246 247
246 248
246 249
247 248
247 263
249 248
263 248
248 261
248 258
248 262
250 249
249 258
249 480
250 251
250 480
250 252
252 251
480 251
251 257
251 256
251 254
252 253
252 254
252 281
254 253
253 280
253 255
253 281
254 255
254 256
256 255
255 279
255 277
255 280
257 256
256 277
256 275
258 257
480 257
257 275
257 274
257 259
258 259
258 260
258 480
258 261
260 259
259 271
259 273
259 272
259 274
261 260
260 272
262 261
261 272
261 264
263 262
262 264
262 265
262 479
265 264
272 264
264 269
264 268
264 270
264 271
266 265
479 265
265 267
265 268
266 267
266 479
268 267
267 358
267 357
269 268
268 357
268 356
268 354
270 269
371 269
269 369
269 354
269 370
271 270
372 270
270 371
272 271
271 273
271 372
274 273
273 372
273 373
273 374
275 274
274 276
274 374
275 276
275 277
277 276
276 375
276 376
276 278
276 374
277 278
277 279
279 278
278 387
278 376
278 300
280 279
279 300
279 299
281 280
280 299
280 282
281 282
282 283
282 299
282 284
284 283
299 283
283 297
283 298
283 295
285 284
284 295
284 293
286 285
285 293
285 291
287 286
286 290
286 289
286 288
286 291
287 288
289 288
288 308
288 309
290 289
289 308
289 306
291 290
290 306
290 292
291 292
291 293
293 292
292 305
292 294
292 306
293 294
293 295
295 294
294 304
294 296
294 305
295 296
295 297
297 296
296 303
296 302
296 304
298 297
297 301
297 302
299 298
300 298
298 301
299 300
300 301
300 387
302 301
301 402
301 387
303 302
302 402
302 329
304 303
317 303
303 327
303 319
303 329
305 304
304 317
306 305
305 317
305 307
306 307
306 308
308 307
310 307
307 316
307 317
309 308
308 310
310 311
310 315
310 312
310 316
312 311
311 315
311 314
311 313
312 313
312 337
314 313
313 322
313 324
313 336
313 337
315 314
314 321
314 322
316 315
315 321
315 318
316 317
316 318
317 318
317 319
318 319
318 320
318 321
319 320
319 327
321 320
320 327
320 326
320 323
321 322
321 323
322 323
322 324
323 324
323 325
323 326
324 325
324 334
324 336
326 325
325 334
325 333
325 331
327 326
326 328
326 331
327 328
327 329
329 328
328 331
328 330
329 330
329 402
331 330
330 332
330 405
330 402
331 332
331 333
333 332
332 405
332 406
332 407
334 333
333 335
333 407
334 335
334 336
336 335
335 407
335 408
337 336
336 338
336 420
336 408
337 338
337 339
337 478
339 338
338 420
338 470
338 469
338 340
339 340
339 478
341 340
468 340
340 469
340 478
342 341
467 341
341 477
341 468
343 342
342 466
342 477
342 467
343 344
343 477
343 465
343 466
345 344
344 465
344 463
344 464
346 345
345 463
345 473
475 345
347 346
447 346
450 346
452 346
346 473
475 346
476 346
348 347
365 347
446 347
447 347
474 347
476 347
349 348
443 348
366 348
348 446
348 365
348 444
350 349
349 443
349 366
351 350
396 350
363 350
350 443
350 366
352 351
395 351
351 396
351 363
353 352
394 352
393 352
352 395
352 363
354 353
369 353
355 353
353 363
353 362
353 394
354 355
354 369
354 356
356 355
355 362
355 361
357 356
356 358
356 361
357 358
358 359
358 360
358 361
358 368
360 359
368 359
359 367
359 364
361 360
362 360
360 363
360 364
361 362
362 363
363 364
363 366
364 365
364 367
364 366
366 365
365 367
370 369
369 394
369 382
371 370
380 370
370 381
370 382
372 371
373 371
371 380
372 373
374 373
373 380
373 378
374 375
374 378
376 375
375 378
375 377
376 377
376 386
376 387
378 377
377 379
377 385
377 386
378 379
378 380
380 379
379 385
379 384
379 381
380 381
381 382
381 383
381 384
382 383
382 394
384 383
383 394
383 393
383 390
385 384
384 389
384 390
386 385
385 389
385 388
387 386
386 388
387 388
387 402
389 388
402 388
388 400
388 401
388 391
389 390
389 391
390 391
390 392
390 393
391 392
391 398
391 400
393 392
392 398
392 397
392 395
394 393
393 395
395 396
395 397
397 396
396 443
396 442
398 397
397 399
397 442
398 399
398 400
400 399
399 442
399 441
399 440
399 439
401 400
400 439
400 437
402 401
401 435
401 437
401 433
402 403
402 404
402 433
402 405
404 403
430 403
403 431
403 432
403 433
405 404
413 404
404 430
404 414
405 406
405 413
407 406
406 413
406 412
406 409
407 408
407 409
408 409
408 410
408 420
409 410
409 411
409 412
410 411
410 419
410 420
412 411
411 419
411 418
411 416
413 412
412 414
412 416
413 414
414 415
414 429
414 430
414 416
416 415
429 415
415 428
415 417
416 417
416 418
418 417
428 417
417 425
417 426
417 427
417 424
419 418
422 418
418 423
418 424
420 419
419 422
419 421
420 421
420 470
422 421
421 423
421 471
421 470
422 423
423 424
423 471
425 424
472 424
424 471
426 425
425 472
425 464
427 426
426 464
426 463
428 427
462 427
427 463
429 428
461 428
428 462
430 429
431 429
429 461
430 431
432 431
431 461
431 459
433 432
434 432
432 459
432 457
433 434
433 435
435 434
436 434
434 457
434 455
435 436
435 437
437 436
438 436
436 455
436 453
437 438
437 439
439 438
440 438
438 453
438 451
439 440
441 440
440 451
440 449
442 441
441 444
441 449
441 443
442 443
443 444
444 445
444 446
444 448
444 449
446 445
445 448
445 447
446 447
448 447
450 447
449 448
448 450
449 450
449 451
451 450
450 452
451 452
451 453
453 452
452 473
452 454
453 454
453 455
455 454
454 473
454 456
455 456
455 457
457 456
456 473
456 458
457 458
457 459
459 458
458 460
458 473
459 460
459 461
461 460
460 463
460 473
460 462
461 462
462 463
464 463
463 473
465 464
466 464
464 472
464 467
465 466
466 467
467 468
467 472
467 469
467 471
468 469
470 469
469 471
470 471
472 471
475 474
474 476
475 476
485 487
485 3
485 347
485 365
485 486
485 474
486 487
486 3
486 484
487 6
487 365
487 367
487 484
